33D32945 STP File, STP Format Version 1.0

SECTION Comments
Name "cube_n14_d3_s40"
Problem "Euclidean Steiner Tree Problem"
Remark "Generated with STPGenerator. 3 dimensions."
END

SECTION Graph
Nodes 14
END

SECTION Coordinates
DDD 0 0.8194229132 0.5062902763 0.0883140588
DDD 1 0.7855343049 0.3411775247 0.8119810777
DDD 2 0.9184383005 0.2771394566 0.1947866791
DDD 3 0.8602793272 0.3503405700 0.4464217548
DDD 4 0.0208598026 0.0373252058 0.1292244392
DDD 5 0.3481050377 0.7246325052 0.5291235137
DDD 6 0.6861238385 0.9269996448 0.8449453608
DDD 7 0.1197466637 0.0576706543 0.2857596349
DDD 8 0.6257388632 0.6073334080 0.3200811210
DDD 9 0.7510317898 0.6239873639 0.9691653433
DDD 10 0.0583464685 0.4434102766 0.4754556192
DDD 11 0.1466605273 0.2289445811 0.8166331438
DDD 12 0.9586416050 0.1473828816 0.0937726004
DDD 13 0.1534282836 0.0076622083 0.4441131705
END
